(set-info :smt-lib-version 2.6)
(set-info :category "crafted")
(set-logic QF_FF)
(define-sort FF0 () (_ FiniteField 52435875175126190479447740508185965837690552500527637822603658699938581184513))
(declare-fun f () Bool)
(declare-fun c () Bool)
(declare-fun e () Bool)
(declare-fun a () Bool)
(declare-fun b () Bool)
(declare-fun d () Bool)
(declare-fun return_n3 () FF0)
(declare-fun d_n1 () FF0)
(declare-fun f_n4 () FF0)
(declare-fun mul_n7 () FF0)
(declare-fun c_n2 () FF0)
(declare-fun e_n0 () FF0)
(declare-fun mul_n8 () FF0)
(declare-fun is_zero_inv_n9 () FF0)
(declare-fun a_n6 () FF0)
(declare-fun b_n5 () FF0)
(assert 
  (let ((let0 f))
  (let ((let1 c))
  (let ((let2 (= let1 let0)))
  (let ((let3 e))
  (let ((let4 (not let3)))
  (let ((let5 a))
  (let ((let6 b))
  (let ((let7 (=> let6 let5)))
  (let ((let8 d))
  (let ((let9 (and let8 let7 let4 let2)))
  (let ((let10 return_n3))
  (let ((let11 (as ff1 FF0)))
  (let ((let12 (= let11 let10)))
  (let ((let13 (= let12 let9)))
  (let ((let14 (as ff0 FF0)))
  (let ((let15 (= let14 let10)))
  (let ((let16 (or let12 let15)))
  (let ((let17 (and let16 let13)))
  (let ((let18 (as ff52435875175126190479447740508185965837690552500527637822603658699938581184512 FF0)))
  (let ((let19 (ff.mul let10 let18)))
  (let ((let20 (ff.add let19 let11)))
  (let ((let21 d_n1))
  (let ((let22 (ff.mul let21 let18)))
  (let ((let23 f_n4))
  (let ((let24 mul_n7))
  (let ((let25 (ff.mul let24 let18)))
  (let ((let26 c_n2))
  (let ((let27 e_n0))
  (let ((let28 mul_n8))
  (let ((let29 (ff.add let28 let27 let26 let25 let23 let22 let11)))
  (let ((let30 is_zero_inv_n9))
  (let ((let31 (ff.mul let30 let29)))
  (let ((let32 (= let31 let20)))
  (let ((let33 a_n6))
  (let ((let34 (ff.mul let33 let18)))
  (let ((let35 (ff.add let34 let11)))
  (let ((let36 b_n5))
  (let ((let37 (ff.mul let36 let35)))
  (let ((let38 (= let37 let28)))
  (let ((let39 (as ff2 FF0)))
  (let ((let40 (ff.mul let26 let39)))
  (let ((let41 (ff.mul let40 let23)))
  (let ((let42 (= let41 let24)))
  (let ((let43 (and let42 let38 let32)))
  (let ((let44 (ite let8 let11 let14)))
  (let ((let45 (= let21 let44)))
  (let ((let46 (ite let0 let11 let14)))
  (let ((let47 (= let23 let46)))
  (let ((let48 (ite let5 let11 let14)))
  (let ((let49 (= let33 let48)))
  (let ((let50 (ite let1 let11 let14)))
  (let ((let51 (= let26 let50)))
  (let ((let52 (ite let3 let11 let14)))
  (let ((let53 (= let27 let52)))
  (let ((let54 (ite let6 let11 let14)))
  (let ((let55 (= let36 let54)))
  (let ((let56 (and let55 let53 let51 let49 let47 let45)))
  (let ((let57 (and let56 let43)))
  (let ((let58 (=> let57 let17)))
  (let ((let59 (not let58)))
  let59
))))))))))))))))))))))))))))))))))))))))))))))))))))))))))))
)
(check-sat)
